(set-option :produce-models true)
(set-logic QF_UF)
(declare-fun p3() Bool)
(declare-fun p9() Bool)
(declare-fun p5() Bool)
(declare-fun p19() Bool)
(declare-fun p8() Bool)
(declare-fun p2() Bool)
(declare-fun p17() Bool)
(declare-fun p16() Bool)
(declare-fun p6() Bool)
(declare-fun p18() Bool)
(declare-fun p12() Bool)
(declare-fun p1() Bool)
(declare-fun p4() Bool)
(declare-fun p10() Bool)
(declare-fun p11() Bool)
(declare-fun p14() Bool)
(declare-fun p7() Bool)
(declare-fun p13() Bool)
(declare-fun p0() Bool)
(declare-fun p15() Bool)
(assert
(and (or p3 (not p9) p5) (or (not p19) (not p8) p19) (or (not p2) (not p17) p19) (or p5 (not p16) p6) (or p9 (not p17) (not p6)) (or (not p3) (not p18) (not p17)) (or (not p16) p12 p1) (or p4 (not p10) p16) (or (not p17) p4 (not p3)) (or p5 (not p6) (not p18)) (or (not p17) (not p18) p6) (or p4 (not p11) p14) (or p2 p17 p18) (or (not p7) p2 (not p18)) (or p8 (not p19) (not p6)) (or p3 (not p6) p7) (or (not p6) p16 p8) (or (not p8) p14 (not p17)) (or p1 p14 p1) (or (not p6) p16 (not p12)) (or (not p13) (not p19) (not p18)) (or (not p14) p0 p3) (or (not p6) p6 (not p19)) (or (not p8) p2 p5) (or p7 p15 p3) (or (not p5) (not p19) p18) (or (not p17) p6 p9) (or p8 p8 p11) (or (not p15) p7 (not p3)) (or p11 (not p7) (not p11)) (or p16 (not p11) (not p8)) (or (not p19) p5 p3) (or p1 p12 p12) (or (not p1) (not p6) (not p19)) (or (not p8) (not p17) p3) (or (not p8) (not p0) (not p5)) (or (not p10) (not p6) (not p11)) (or p15 p6 (not p5)) (or (not p6) (not p2) p18) (or p0 p16 (not p7)) (or p4 p19 p5) (or p4 (not p12) (not p5)) (or p7 (not p17) (not p2)) (or p18 (not p12) p18) (or (not p10) p14 (not p1)) (or (not p1) (not p18) (not p4)) (or (not p7) p11 p4) (or (not p4) p3 (not p14)) (or (not p1) p19 (not p6)) (or (not p0) (not p18) (not p0)) (or p11 p16 (not p6)) (or (not p14) p7 (not p6)) (or p17 (not p5) p14) (or (not p14) (not p17) (not p3)) (or p8 p8 (not p2)) (or p4 (not p13) (not p6)) (or (not p19) p0 p3) (or (not p17) (not p18) (not p7)) (or (not p12) (not p8) p14) (or (not p15) (not p4) p17) (or (not p16) (not p6) p5) (or p17 p15 (not p5)) (or (not p0) p12 p1) (or p11 p18 (not p12)) (or (not p16) (not p9) (not p13)) (or p18 (not p19) p19) (or p15 (not p15) (not p8)) (or p11 p12 (not p9)) (or (not p12) p4 p5) (or (not p6) p12 p5) (or p3 p16 (not p4)) (or (not p11) (not p7) (not p10)) (or p9 (not p15) p17) (or (not p17) p12 (not p15)) (or (not p2) (not p4) (not p16)) (or (not p12) (not p6) p13) (or p6 (not p5) (not p14)) (or (not p10) p10 p17) (or p16 p5 p11) (or p16 (not p11) (not p8)) (or p2 (not p1) (not p1)) (or p14 (not p6) p4) (or (not p11) p14 (not p2)) (or (not p8) p9 (not p7)) (or p8 (not p13) (not p16)) (or p15 (not p14) p17) (or (not p15) (not p0) (not p19)))
)
(check-sat)
(get-model)
